p edge 26 82
e 1 2
e 1 3
e 1 4
e 1 5
e 1 6
e 1 7
e 1 10
e 1 12
e 1 17
e 1 22
e 1 23
e 2 3
e 2 4
e 2 5
e 2 6
e 2 7
e 2 8
e 2 9
e 2 13
e 2 14
e 3 5
e 3 6
e 3 7
e 3 8
e 3 9
e 3 15
e 3 25
e 4 5
e 4 6
e 4 7
e 4 10
e 4 12
e 4 17
e 4 22
e 4 23
e 5 6
e 5 7
e 5 8
e 5 15
e 6 7
e 6 8
e 6 15
e 7 22
e 7 23
e 8 9
e 8 13
e 8 14
e 8 21
e 9 13
e 9 14
e 9 20
e 9 21
e 9 26
e 10 11
e 10 12
e 10 17
e 10 19
e 10 24
e 11 12
e 11 13
e 11 14
e 11 19
e 11 21
e 11 24
e 12 17
e 12 19
e 12 24
e 13 14
e 13 21
e 14 21
e 15 16
e 15 25
e 16 18
e 16 20
e 16 25
e 17 22
e 17 23
e 18 20
e 18 26
e 19 24
e 20 26
e 22 23
